Solver command line: ['C:\\Program Files\\IBM\\ILOG\\CPLEX_Studio2211\\cplex\\bin\\x64_win64\\cplex.exe']


Welcome to IBM(R) ILOG(R) CPLEX(R) Interactive Optimizer 22.1.1.0
  with Simplex, Mixed Integer & Barrier Optimizers
5725-A06 5725-A29 5724-Y48 5724-Y49 5724-Y54 5724-Y55 5655-Y21
Copyright IBM Corp. 1988, 2022.  All Rights Reserved.

Type 'help' for a list of available commands.
Type 'help' followed by a command name for more
information on commands.

CPLEX> Logfile 'cplex.log' closed.
Logfile 'C:\Users\wangy\Documents\GitHub\re_optimization\result_site_specific\tmpkq1tcvy6.cplex.log' open.
CPLEX> Problem 'C:\Users\wangy\Documents\GitHub\re_optimization\result_site_specific\tmpno6c135u.pyomo.lp' read.
Read time = 0.30 sec. (9.13 ticks)
CPLEX> Problem name         : C:\Users\wangy\Documents\GitHub\re_optimization\result_site_specific\tmpno6c135u.pyomo.lp
Objective sense      : Minimize
Variables            :   65769  [Nneg: 35068,  Free: 8792,  Binary: 9,
                                 Other: 21900]
Objective nonzeros   :      17
Linear constraints   :   87665  [Less: 46741,  Greater: 5,  Equal: 40919]
  Nonzeros           :  225078
  RHS nonzeros       :    3651

Variables            : Min LB: 0.000000         Max UB: 1.000000       
Objective nonzeros   : Min   : 1.000000         Max   : 1.000000       
Linear constraints   :
  Nonzeros           : Min   : 0.002051807      Max   : 100000.0       
  RHS nonzeros       : Min   : 0.2080000        Max   : 100000.0       
CPLEX> Version identifier: 22.1.1.0 | 2022-11-27 | 9160aff4d
Tried aggregator 3 times.
MIP Presolve eliminated 53133 rows and 32690 columns.
Aggregator did 10752 substitutions.
Reduced MIP has 23780 rows, 22327 columns, and 71489 nonzeros.
Reduced MIP has 5 binaries, 0 generals, 0 SOSs, and 0 indicators.
Presolve time = 0.20 sec. (226.97 ticks)
Found incumbent of value 229656.979946 after 0.28 sec. (322.36 ticks)
Probing time = 0.00 sec. (1.32 ticks)
Tried aggregator 1 time.
Detecting symmetries...
Reduced MIP has 23780 rows, 22327 columns, and 71489 nonzeros.
Reduced MIP has 5 binaries, 0 generals, 0 SOSs, and 0 indicators.
Presolve time = 0.03 sec. (45.87 ticks)
Probing time = 0.00 sec. (1.22 ticks)
MIP emphasis: balance optimality and feasibility.
MIP search method: dynamic search.
Parallel mode: deterministic, using up to 16 threads.
Root relaxation solution time = 1.34 sec. (1020.89 ticks)

        Nodes                                         Cuts/
   Node  Left     Objective  IInf  Best Integer    Best Bound    ItCnt     Gap

*     0+    0                       229656.9799   -10649.5528           104.64%
*     0+    0                         7741.7615   -10649.5528           237.56%
      0     0     6977.9449     1     7741.7615     6977.9449       83    9.87%
*     0+    0                         7741.7520     6977.9449             9.87%
      0     0        cutoff           7741.7520                    979    0.00%
Elapsed time = 2.00 sec. (1923.20 ticks, tree = 0.01 MB, solutions = 3)

Root node processing (before b&c):
  Real time             =    2.00 sec. (1926.37 ticks)
Parallel b&c, 16 threads:
  Real time             =    0.00 sec. (0.00 ticks)
  Sync time (average)   =    0.00 sec.
  Wait time (average)   =    0.00 sec.
                          ------------
Total (root+branch&cut) =    2.00 sec. (1926.37 ticks)

Solution pool: 3 solutions saved.

MIP - Integer optimal solution:  Objective =  7.7417519694e+03
Solution time =    2.00 sec.  Iterations = 979  Nodes = 0
Deterministic time = 1926.55 ticks  (963.28 ticks/sec)

CPLEX> Incumbent solution written to file 'C:\Users\wangy\Documents\GitHub\re_optimization\result_site_specific\tmpcinplxcw.cplex.sol'.
CPLEX> 
